project #3/proj3.dzn
number_tasks = 10;
max_number_fragments = 5;
max_number_dependencies = 2;
max_deadline = 51;
tasks = [|0, 2, 2, 1, 0|
         9, 2, 11, 2, 0|
         9, 3, 15, 1, 1|
         6, 1, 7, 1, 0|
         15, 12, 51, 3, 2|
         2, 4, 14, 3, 0|
         6, 2, 10, 2, 0|
         17, 7, 38, 5, 2|
         1, 6, 7, 4, 0|
         7, 12, 19, 3, 0|];
fragments = [|2, 0, 0, 0, 0|
             1, 1, 0, 0, 0|
             3, 0, 0, 0, 0|
             1, 0, 0, 0, 0|
             3, 4, 5, 0, 0|
             1, 2, 1, 0, 0|
             1, 1, 0, 0, 0|
             1, 1, 2, 2, 1|
             1, 1, 2, 2, 0|
             4, 3, 5, 0, 0|];
dependencies = [|0, 0|
                0, 0|
                6, 0|
                0, 0|
                6, 4|
                0, 0|
                0, 0|
                4, 5|
                0, 0|
                0, 0|];